50
    1    47    24
    2    33    21
    3    25    11
    4     9     8
    5    14    35
    6    48    42
    7    34    10
    8     4    20
    9    45    34
   10    43    39
   11    50     6
   12    32    16
   13    12    19
   14    35    39
   15    36    33
   16     9    27
   17    35    46
   18    49    11
   19    27    28
   20    16    33
   21     4    26
   22    30     4
   23    27    29
   24    29    39
   25    20     7
   26     3    27
   27     7    33
   28    20    26
   29    23    24
   30    27    12
   31    40    46
   32    25    20
   33    39    32
   34     6    16
   35    30    45
   36     4    10
   37    46    23
   38    44    35
   39     1    23
   40    26    17
   41    17     8
   42    18    38
   43     2    39
   44    14    20
   45    39    48
   46    46    45
   47     9    26
   48    17    26
   49     9    38
   50    30    13
648
